c uprop, v00.0, 
c reading from data/prog916.c.cnf
c done reading: 0.003735
p cnf 112 380
-58 -75 0
-60 -75 0
58 60 75 0
58 60 -83 0
-58 -60 -83 0
-58 60 83 0
58 -60 83 0
-64 75 0
-64 -65 0
64 65 -75 0
65 -70 -75 0
-65 -70 75 0
65 70 75 0
-65 70 -75 0
64 -74 0
-74 -77 0
-64 74 77 0
-64 77 -80 0
64 -77 -80 0
64 77 80 0
-64 -77 80 0
74 -81 0
-81 -85 0
-74 81 85 0
-59 -74 85 0
-59 74 -85 0
59 74 85 0
59 -74 -85 0
-57 81 0
-57 -62 0
57 62 -81 0
-56 62 -81 0
-56 -62 81 0
56 62 81 0
56 -62 -81 0
-55 57 0
-55 -67 0
55 -57 67 0
-54 -57 67 0
-54 57 -67 0
54 57 67 0
54 -57 -67 0
-53 55 0
-53 -72 0
53 -55 72 0
-52 -55 72 0
-52 55 -72 0
52 55 72 0
52 -55 -72 0
-51 77 0
-51 58 0
51 -58 -77 0
-50 -58 -77 0
-50 58 77 0
50 58 -77 0
50 -58 77 0
49 -60 -85 0
49 -51 -85 0
49 -51 -60 0
-49 60 85 0
-49 51 85 0
-49 51 60 0
-48 -49 85 0
-48 -49 60 0
-48 -49 51 0
48 49 -85 0
48 49 -60 0
48 49 -51 0
48 -51 -60 -85 0
-48 51 60 85 0
47 -62 -65 0
47 -49 -62 0
47 -49 -65 0
-47 62 65 0
-47 49 62 0
-47 49 65 0
-46 -47 62 0
-46 -47 65 0
-46 -47 49 0
46 47 -62 0
46 47 -65 0
46 47 -49 0
46 -49 -62 -65 0
-46 49 62 65 0
45 -67 -77 0
45 -47 -67 0
45 -47 -77 0
-45 67 77 0
-45 47 67 0
-45 47 77 0
-45 67 -87 0
-45 77 -87 0
-45 47 -87 0
45 -67 87 0
45 -77 87 0
45 -47 87 0
-47 -67 -77 87 0
47 67 77 -87 0
-72 -85 88 0
-45 -72 88 0
-45 -85 88 0
72 85 -88 0
45 72 -88 0
45 85 -88 0
-72 88 0
-85 88 0
-45 88 0
-45 -72 -85 0
62 -89 0
88 -89 0
-62 -88 89 0
-62 88 0
62 -88 0
67 -90 0
89 -90 0
-67 -89 90 0
-67 89 0
67 -89 0
-72 -90 0
-72 90 0
72 -90 0
-58 -78 0
-60 -78 0
58 60 78 0
58 60 -86 0
-58 -60 -86 0
-58 60 86 0
58 -60 86 0
-63 78 0
-63 -65 0
63 65 -78 0
65 -68 -78 0
-65 -68 78 0
65 68 78 0
-65 68 -78 0
63 -73 0
-50 -73 0
50 -63 73 0
50 -63 -91 0
-50 63 -91 0
50 63 91 0
-50 -63 91 0
73 -92 0
-48 -92 0
48 -73 92 0
48 -73 -95 0
-48 73 -95 0
48 73 95 0
-48 -73 95 0
92 -96 0
-46 -96 0
46 -92 96 0
46 -92 -97 0
-46 92 -97 0
46 92 97 0
-46 -92 97 0
96 -98 0
-87 -98 0
87 -96 98 0
87 -96 -99 0
-87 96 -99 0
87 96 99 0
-87 -96 99 0
98 -100 0
-98 100 0
-98 -101 0
98 101 0
100 -102 0
-100 102 0
-100 -103 0
100 103 0
102 -104 0
-102 104 0
-102 -105 0
102 105 0
104 -106 0
-104 106 0
-104 -107 0
104 107 0
106 -108 0
-106 108 0
-106 -109 0
106 109 0
-94 -110 0
94 110 0
94 -111 0
-94 111 0
110 -112 0
-44 -112 0
44 -110 112 0
-42 44 -110 0
-42 -44 110 0
42 44 110 0
42 -44 -110 0
-41 112 0
-40 -41 0
40 41 -112 0
-38 40 -112 0
-38 -40 112 0
38 40 112 0
38 -40 -112 0
-37 41 0
37 -41 0
-36 -41 0
36 41 0
-35 37 0
35 -37 0
-34 -37 0
34 37 0
-33 35 0
33 -35 0
-32 -35 0
32 35 0
-31 33 0
31 -33 0
-30 -33 0
30 33 0
-29 40 0
29 -40 0
28 -94 0
-28 94 0
27 -44 0
-27 44 0
26 -40 0
-26 40 0
-25 28 0
25 -28 0
24 -27 -94 0
-24 27 94 0
-24 27 0
-24 94 0
-23 -24 27 0
-23 -24 94 0
-23 -24 0
23 24 -27 0
23 24 -94 0
-23 27 94 0
22 -26 -44 0
22 -24 -26 0
22 -24 -44 0
-22 26 44 0
-22 24 26 0
-22 24 44 0
-21 -22 26 0
-21 -22 44 0
-21 -22 24 0
21 22 -26 0
21 22 -44 0
21 22 -24 0
21 -24 -26 -44 0
-21 24 26 44 0
-22 -40 0
20 -40 0
20 -22 0
-20 22 40 0
-76 -94 0
76 94 0
-84 94 0
84 -94 0
-61 76 0
-44 -61 0
44 61 -76 0
44 -66 -76 0
-44 -66 76 0
44 66 76 0
-44 66 -76 0
61 -71 0
-29 -71 0
29 -61 71 0
-19 29 -61 0
-19 -29 61 0
19 29 61 0
19 -29 -61 0
71 -93 0
-25 -93 0
25 -71 93 0
25 -43 -71 0
-25 -43 71 0
25 43 71 0
-25 43 -71 0
-39 93 0
-23 -39 0
23 39 -93 0
-18 23 -93 0
-18 -23 93 0
18 23 93 0
18 -23 -93 0
-17 39 0
-17 -21 0
17 21 -39 0
-16 21 -39 0
-16 -21 39 0
16 21 39 0
16 -21 -39 0
-15 17 0
-15 -20 0
15 -17 20 0
-14 -17 20 0
-14 17 -20 0
14 17 20 0
14 -17 -20 0
-13 15 0
13 -15 0
-12 -15 0
12 15 0
-11 13 0
11 -13 0
-10 -13 0
10 13 0
-9 11 0
9 -11 0
-8 -11 0
8 11 0
-7 9 0
7 -9 0
-6 -9 0
6 9 0
-5 7 0
5 -7 0
-4 -7 0
4 7 0
-3 58 0
-3 94 0
3 -58 -94 0
-58 -94 0
58 94 0
2 -44 -60 0
2 -3 -60 0
2 -3 -44 0
-2 44 60 0
-2 3 60 0
-2 3 44 0
2 -60 0
2 -44 0
2 -3 0
-3 -44 -60 0
1 -29 -65 0
1 -2 -65 0
1 -2 -29 0
-1 29 65 0
-1 2 65 0
-1 2 29 0
1 -65 0
1 -29 0
1 -2 0
-2 -29 -65 0
-25 -50 82 0
-1 -50 82 0
-1 -25 82 0
25 50 -82 0
1 50 -82 0
1 25 -82 0
50 -82 0
25 -82 0
1 -82 0
1 25 50 0
-23 -48 69 0
-48 69 -82 0
-23 69 -82 0
23 48 -69 0
48 -69 82 0
23 -69 82 0
-48 69 0
-23 69 0
69 -82 0
-23 -48 -82 0
-21 -46 79 0
-46 -69 79 0
-21 -69 79 0
21 46 -79 0
46 69 -79 0
21 69 -79 0
46 -79 0
21 -79 0
69 -79 0
21 46 69 0
-20 -87 0
-79 -87 0
-20 -79 0
20 79 87 0
